c Mesh Graph
c 20 Rows, 20 columns, capacities in range [0, 100]
p max 402 1180
n 1 s
n 402 t
a 1 21 300
a 1 20 300
a 1 19 300
a 1 18 300
a 1 17 300
a 1 16 300
a 1 15 300
a 1 14 300
a 1 13 300
a 1 12 300
a 1 11 300
a 1 10 300
a 1 9 300
a 1 8 300
a 1 7 300
a 1 6 300
a 1 5 300
a 1 4 300
a 1 3 300
a 1 2 300
a 2 23 96
a 2 22 35
a 2 41 11
a 3 24 58
a 3 23 8
a 3 22 22
a 4 25 57
a 4 24 16
a 4 23 96
a 5 26 7
a 5 25 69
a 5 24 2
a 6 27 95
a 6 26 38
a 6 25 95
a 7 28 90
a 7 27 1
a 7 26 54
a 8 29 98
a 8 28 84
a 8 27 1
a 9 30 52
a 9 29 57
a 9 28 57
a 10 31 66
a 10 30 66
a 10 29 90
a 11 32 33
a 11 31 10
a 11 30 82
a 12 33 67
a 12 32 20
a 12 31 11
a 13 34 26
a 13 33 93
a 13 32 6
a 14 35 42
a 14 34 89
a 14 33 63
a 15 36 62
a 15 35 90
a 15 34 72
a 16 37 99
a 16 36 36
a 16 35 78
a 17 38 99
a 17 37 90
a 17 36 24
a 18 39 34
a 18 38 42
a 18 37 13
a 19 40 42
a 19 39 50
a 19 38 63
a 20 41 59
a 20 40 40
a 20 39 66
a 21 22 68
a 21 41 73
a 21 40 83
a 22 43 40
a 22 42 84
a 22 61 16
a 23 44 32
a 23 43 89
a 23 42 82
a 24 45 72
a 24 44 4
a 24 43 8
a 25 46 61
a 25 45 75
a 25 44 1
a 26 47 97
a 26 46 4
a 26 45 62
a 27 48 38
a 27 47 27
a 27 46 13
a 28 49 79
a 28 48 92
a 28 47 63
a 29 50 28
a 29 49 54
a 29 48 97
a 30 51 19
a 30 50 19
a 30 49 90
a 31 52 92
a 31 51 2
a 31 50 49
a 32 53 27
a 32 52 17
a 32 51 68
a 33 54 15
a 33 53 50
a 33 52 7
a 34 55 18
a 34 54 9
a 34 53 39
a 35 56 44
a 35 55 9
a 35 54 10
a 36 57 47
a 36 56 71
a 36 55 23
a 37 58 74
a 37 57 35
a 37 56 71
a 38 59 65
a 38 58 97
a 38 57 8
a 39 60 70
a 39 59 45
a 39 58 38
a 40 61 88
a 40 60 35
a 40 59 17
a 41 42 41
a 41 61 35
a 41 60 88
a 42 63 9
a 42 62 2
a 42 81 79
a 43 64 59
a 43 63 61
a 43 62 5
a 44 65 67
a 44 64 51
a 44 63 71
a 45 66 76
a 45 65 12
a 45 64 41
a 46 67 98
a 46 66 34
a 46 65 84
a 47 68 32
a 47 67 56
a 47 66 83
a 48 69 80
a 48 68 15
a 48 67 8
a 49 70 25
a 49 69 52
a 49 68 72
a 50 71 11
a 50 70 21
a 50 69 93
a 51 72 45
a 51 71 8
a 51 70 80
a 52 73 98
a 52 72 38
a 52 71 73
a 53 74 58
a 53 73 94
a 53 72 81
a 54 75 60
a 54 74 64
a 54 73 39
a 55 76 72
a 55 75 56
a 55 74 58
a 56 77 57
a 56 76 92
a 56 75 85
a 57 78 13
a 57 77 74
a 57 76 82
a 58 79 27
a 58 78 81
a 58 77 65
a 59 80 31
a 59 79 4
a 59 78 44
a 60 81 51
a 60 80 48
a 60 79 20
a 61 62 58
a 61 81 27
a 61 80 30
a 62 83 47
a 62 82 51
a 62 101 26
a 63 84 40
a 63 83 32
a 63 82 24
a 64 85 3
a 64 84 22
a 64 83 33
a 65 86 11
a 65 85 79
a 65 84 93
a 66 87 2
a 66 86 63
a 66 85 16
a 67 88 75
a 67 87 96
a 67 86 72
a 68 89 7
a 68 88 12
a 68 87 84
a 69 90 62
a 69 89 8
a 69 88 63
a 70 91 9
a 70 90 27
a 70 89 45
a 71 92 87
a 71 91 9
a 71 90 47
a 72 93 38
a 72 92 34
a 72 91 56
a 73 94 21
a 73 93 9
a 73 92 2
a 74 95 42
a 74 94 42
a 74 93 41
a 75 96 73
a 75 95 86
a 75 94 95
a 76 97 35
a 76 96 1
a 76 95 5
a 77 98 83
a 77 97 24
a 77 96 6
a 78 99 94
a 78 98 8
a 78 97 32
a 79 100 1
a 79 99 22
a 79 98 90
a 80 101 28
a 80 100 18
a 80 99 3
a 81 82 88
a 81 101 64
a 81 100 11
a 82 103 21
a 82 102 19
a 82 121 50
a 83 104 30
a 83 103 72
a 83 102 39
a 84 105 23
a 84 104 12
a 84 103 59
a 85 106 60
a 85 105 58
a 85 104 52
a 86 107 12
a 86 106 63
a 86 105 24
a 87 108 35
a 87 107 20
a 87 106 11
a 88 109 94
a 88 108 52
a 88 107 93
a 89 110 15
a 89 109 93
a 89 108 86
a 90 111 84
a 90 110 96
a 90 109 39
a 91 112 47
a 91 111 58
a 91 110 18
a 92 113 17
a 92 112 59
a 92 111 5
a 93 114 88
a 93 113 97
a 93 112 25
a 94 115 99
a 94 114 7
a 94 113 6
a 95 116 57
a 95 115 59
a 95 114 80
a 96 117 71
a 96 116 34
a 96 115 39
a 97 118 90
a 97 117 96
a 97 116 2
a 98 119 93
a 98 118 88
a 98 117 37
a 99 120 38
a 99 119 26
a 99 118 30
a 100 121 33
a 100 120 16
a 100 119 97
a 101 102 90
a 101 121 33
a 101 120 80
a 102 123 49
a 102 122 37
a 102 141 27
a 103 124 97
a 103 123 13
a 103 122 43
a 104 125 4
a 104 124 71
a 104 123 31
a 105 126 14
a 105 125 50
a 105 124 81
a 106 127 99
a 106 126 41
a 106 125 89
a 107 128 95
a 107 127 42
a 107 126 11
a 108 129 34
a 108 128 30
a 108 127 53
a 109 130 59
a 109 129 60
a 109 128 45
a 110 131 74
a 110 130 56
a 110 129 82
a 111 132 58
a 111 131 87
a 111 130 66
a 112 133 46
a 112 132 13
a 112 131 8
a 113 134 11
a 113 133 8
a 113 132 8
a 114 135 81
a 114 134 90
a 114 133 4
a 115 136 82
a 115 135 22
a 115 134 59
a 116 137 74
a 116 136 11
a 116 135 24
a 117 138 68
a 117 137 73
a 117 136 23
a 118 139 97
a 118 138 25
a 118 137 69
a 119 140 8
a 119 139 22
a 119 138 2
a 120 141 63
a 120 140 55
a 120 139 13
a 121 122 2
a 121 141 21
a 121 140 86
a 122 143 14
a 122 142 80
a 122 161 96
a 123 144 73
a 123 143 87
a 123 142 41
a 124 145 14
a 124 144 42
a 124 143 51
a 125 146 36
a 125 145 53
a 125 144 83
a 126 147 98
a 126 146 76
a 126 145 65
a 127 148 70
a 127 147 50
a 127 146 90
a 128 149 47
a 128 148 70
a 128 147 57
a 129 150 68
a 129 149 72
a 129 148 6
a 130 151 22
a 130 150 84
a 130 149 13
a 131 152 94
a 131 151 21
a 131 150 28
a 132 153 73
a 132 152 16
a 132 151 29
a 133 154 59
a 133 153 9
a 133 152 94
a 134 155 53
a 134 154 11
a 134 153 67
a 135 156 5
a 135 155 94
a 135 154 32
a 136 157 32
a 136 156 10
a 136 155 67
a 137 158 34
a 137 157 99
a 137 156 16
a 138 159 3
a 138 158 8
a 138 157 38
a 139 160 74
a 139 159 13
a 139 158 84
a 140 161 9
a 140 160 25
a 140 159 51
a 141 142 82
a 141 161 4
a 141 160 72
a 142 163 97
a 142 162 32
a 142 181 66
a 143 164 57
a 143 163 26
a 143 162 90
a 144 165 68
a 144 164 44
a 144 163 49
a 145 166 13
a 145 165 27
a 145 164 53
a 146 167 22
a 146 166 94
a 146 165 9
a 147 168 72
a 147 167 61
a 147 166 40
a 148 169 31
a 148 168 98
a 148 167 73
a 149 170 43
a 149 169 81
a 149 168 28
a 150 171 20
a 150 170 83
a 150 169 1
a 151 172 23
a 151 171 55
a 151 170 62
a 152 173 7
a 152 172 72
a 152 171 43
a 153 174 84
a 153 173 61
a 153 172 91
a 154 175 79
a 154 174 61
a 154 173 48
a 155 176 5
a 155 175 65
a 155 174 67
a 156 177 50
a 156 176 73
a 156 175 79
a 157 178 11
a 157 177 13
a 157 176 52
a 158 179 60
a 158 178 37
a 158 177 23
a 159 180 93
a 159 179 64
a 159 178 54
a 160 181 75
a 160 180 17
a 160 179 48
a 161 162 81
a 161 181 78
a 161 180 19
a 162 183 52
a 162 182 20
a 162 201 94
a 163 184 65
a 163 183 10
a 163 182 100
a 164 185 77
a 164 184 9
a 164 183 35
a 165 186 42
a 165 185 75
a 165 184 13
a 166 187 14
a 166 186 53
a 166 185 69
a 167 188 78
a 167 187 4
a 167 186 19
a 168 189 15
a 168 188 79
a 168 187 81
a 169 190 30
a 169 189 84
a 169 188 40
a 170 191 46
a 170 190 83
a 170 189 32
a 171 192 23
a 171 191 2
a 171 190 59
a 172 193 94
a 172 192 95
a 172 191 39
a 173 194 56
a 173 193 46
a 173 192 43
a 174 195 64
a 174 194 32
a 174 193 7
a 175 196 39
a 175 195 44
a 175 194 35
a 176 197 43
a 176 196 12
a 176 195 76
a 177 198 99
a 177 197 82
a 177 196 42
a 178 199 29
a 178 198 62
a 178 197 71
a 179 200 12
a 179 199 54
a 179 198 85
a 180 201 46
a 180 200 37
a 180 199 15
a 181 182 47
a 181 201 95
a 181 200 12
a 182 203 93
a 182 202 86
a 182 221 87
a 183 204 90
a 183 203 28
a 183 202 80
a 184 205 21
a 184 204 34
a 184 203 35
a 185 206 16
a 185 205 20
a 185 204 99
a 186 207 80
a 186 206 48
a 186 205 89
a 187 208 61
a 187 207 89
a 187 206 83
a 188 209 75
a 188 208 59
a 188 207 81
a 189 210 80
a 189 209 96
a 189 208 61
a 190 211 68
a 190 210 62
a 190 209 24
a 191 212 15
a 191 211 73
a 191 210 70
a 192 213 100
a 192 212 59
a 192 211 16
a 193 214 27
a 193 213 91
a 193 212 61
a 194 215 12
a 194 214 25
a 194 213 2
a 195 216 31
a 195 215 75
a 195 214 75
a 196 217 78
a 196 216 63
a 196 215 90
a 197 218 18
a 197 217 46
a 197 216 69
a 198 219 29
a 198 218 78
a 198 217 82
a 199 220 24
a 199 219 39
a 199 218 8
a 200 221 37
a 200 220 62
a 200 219 39
a 201 202 61
a 201 221 31
a 201 220 6
a 202 223 72
a 202 222 99
a 202 241 20
a 203 224 62
a 203 223 11
a 203 222 19
a 204 225 86
a 204 224 12
a 204 223 97
a 205 226 61
a 205 225 86
a 205 224 8
a 206 227 75
a 206 226 28
a 206 225 91
a 207 228 20
a 207 227 48
a 207 226 68
a 208 229 50
a 208 228 81
a 208 227 38
a 209 230 88
a 209 229 88
a 209 228 66
a 210 231 1
a 210 230 26
a 210 229 41
a 211 232 84
a 211 231 84
a 211 230 29
a 212 233 82
a 212 232 3
a 212 231 89
a 213 234 44
a 213 233 74
a 213 232 60
a 214 235 55
a 214 234 70
a 214 233 21
a 215 236 93
a 215 235 30
a 215 234 59
a 216 237 20
a 216 236 20
a 216 235 19
a 217 238 67
a 217 237 39
a 217 236 45
a 218 239 48
a 218 238 76
a 218 237 65
a 219 240 87
a 219 239 93
a 219 238 66
a 220 241 65
a 220 240 33
a 220 239 53
a 221 222 48
a 221 241 61
a 221 240 5
a 222 243 2
a 222 242 50
a 222 261 88
a 223 244 27
a 223 243 61
a 223 242 21
a 224 245 49
a 224 244 82
a 224 243 64
a 225 246 78
a 225 245 40
a 225 244 19
a 226 247 97
a 226 246 10
a 226 245 11
a 227 248 35
a 227 247 54
a 227 246 82
a 228 249 63
a 228 248 70
a 228 247 48
a 229 250 55
a 229 249 35
a 229 248 47
a 230 251 88
a 230 250 39
a 230 249 34
a 231 252 100
a 231 251 44
a 231 250 50
a 232 253 1
a 232 252 83
a 232 251 97
a 233 254 62
a 233 253 4
a 233 252 50
a 234 255 43
a 234 254 67
a 234 253 77
a 235 256 34
a 235 255 85
a 235 254 25
a 236 257 43
a 236 256 47
a 236 255 54
a 237 258 48
a 237 257 80
a 237 256 2
a 238 259 70
a 238 258 80
a 238 257 36
a 239 260 4
a 239 259 26
a 239 258 98
a 240 261 95
a 240 260 11
a 240 259 53
a 241 242 90
a 241 261 12
a 241 260 92
a 242 263 72
a 242 262 8
a 242 281 91
a 243 264 27
a 243 263 10
a 243 262 92
a 244 265 94
a 244 264 38
a 244 263 53
a 245 266 30
a 245 265 14
a 245 264 47
a 246 267 29
a 246 266 67
a 246 265 80
a 247 268 8
a 247 267 68
a 247 266 74
a 248 269 39
a 248 268 55
a 248 267 73
a 249 270 65
a 249 269 53
a 249 268 42
a 250 271 27
a 250 270 57
a 250 269 98
a 251 272 39
a 251 271 100
a 251 270 92
a 252 273 98
a 252 272 90
a 252 271 33
a 253 274 59
a 253 273 33
a 253 272 56
a 254 275 96
a 254 274 37
a 254 273 83
a 255 276 9
a 255 275 83
a 255 274 28
a 256 277 27
a 256 276 14
a 256 275 57
a 257 278 94
a 257 277 39
a 257 276 37
a 258 279 49
a 258 278 12
a 258 277 45
a 259 280 53
a 259 279 53
a 259 278 83
a 260 281 61
a 260 280 50
a 260 279 99
a 261 262 60
a 261 281 93
a 261 280 78
a 262 283 1
a 262 282 77
a 262 301 68
a 263 284 34
a 263 283 33
a 263 282 17
a 264 285 70
a 264 284 67
a 264 283 76
a 265 286 5
a 265 285 94
a 265 284 71
a 266 287 18
a 266 286 50
a 266 285 32
a 267 288 57
a 267 287 39
a 267 286 58
a 268 289 20
a 268 288 83
a 268 287 52
a 269 290 72
a 269 289 17
a 269 288 52
a 270 291 74
a 270 290 68
a 270 289 56
a 271 292 18
a 271 291 97
a 271 290 16
a 272 293 95
a 272 292 16
a 272 291 27
a 273 294 27
a 273 293 32
a 273 292 27
a 274 295 93
a 274 294 7
a 274 293 60
a 275 296 86
a 275 295 30
a 275 294 82
a 276 297 87
a 276 296 61
a 276 295 38
a 277 298 25
a 277 297 70
a 277 296 55
a 278 299 59
a 278 298 21
a 278 297 63
a 279 300 28
a 279 299 24
a 279 298 34
a 280 301 47
a 280 300 79
a 280 299 6
a 281 282 43
a 281 301 46
a 281 300 31
a 282 303 10
a 282 302 72
a 282 321 48
a 283 304 41
a 283 303 99
a 283 302 42
a 284 305 100
a 284 304 10
a 284 303 20
a 285 306 81
a 285 305 43
a 285 304 64
a 286 307 41
a 286 306 80
a 286 305 1
a 287 308 62
a 287 307 87
a 287 306 88
a 288 309 35
a 288 308 1
a 288 307 64
a 289 310 58
a 289 309 35
a 289 308 75
a 290 311 89
a 290 310 92
a 290 309 2
a 291 312 34
a 291 311 74
a 291 310 100
a 292 313 58
a 292 312 21
a 292 311 94
a 293 314 8
a 293 313 15
a 293 312 3
a 294 315 69
a 294 314 86
a 294 313 43
a 295 316 12
a 295 315 50
a 295 314 94
a 296 317 43
a 296 316 50
a 296 315 74
a 297 318 29
a 297 317 89
a 297 316 66
a 298 319 82
a 298 318 5
a 298 317 28
a 299 320 16
a 299 319 79
a 299 318 62
a 300 321 59
a 300 320 32
a 300 319 71
a 301 302 32
a 301 321 31
a 301 320 59
a 302 323 4
a 302 322 76
a 302 341 45
a 303 324 70
a 303 323 78
a 303 322 2
a 304 325 56
a 304 324 72
a 304 323 61
a 305 326 57
a 305 325 66
a 305 324 29
a 306 327 58
a 306 326 39
a 306 325 40
a 307 328 99
a 307 327 5
a 307 326 35
a 308 329 3
a 308 328 84
a 308 327 15
a 309 330 33
a 309 329 45
a 309 328 96
a 310 331 64
a 310 330 15
a 310 329 63
a 311 332 46
a 311 331 26
a 311 330 21
a 312 333 21
a 312 332 22
a 312 331 52
a 313 334 98
a 313 333 23
a 313 332 8
a 314 335 21
a 314 334 35
a 314 333 77
a 315 336 86
a 315 335 63
a 315 334 32
a 316 337 25
a 316 336 55
a 316 335 40
a 317 338 81
a 317 337 89
a 317 336 98
a 318 339 64
a 318 338 3
a 318 337 96
a 319 340 60
a 319 339 99
a 319 338 50
a 320 341 26
a 320 340 61
a 320 339 82
a 321 322 3
a 321 341 34
a 321 340 45
a 322 343 24
a 322 342 85
a 322 361 42
a 323 344 98
a 323 343 92
a 323 342 14
a 324 345 32
a 324 344 21
a 324 343 63
a 325 346 95
a 325 345 52
a 325 344 83
a 326 347 49
a 326 346 44
a 326 345 69
a 327 348 37
a 327 347 41
a 327 346 45
a 328 349 91
a 328 348 88
a 328 347 25
a 329 350 89
a 329 349 37
a 329 348 40
a 330 351 2
a 330 350 18
a 330 349 51
a 331 352 35
a 331 351 14
a 331 350 76
a 332 353 71
a 332 352 55
a 332 351 79
a 333 354 15
a 333 353 68
a 333 352 2
a 334 355 35
a 334 354 82
a 334 353 100
a 335 356 38
a 335 355 64
a 335 354 31
a 336 357 81
a 336 356 84
a 336 355 77
a 337 358 73
a 337 357 28
a 337 356 25
a 338 359 60
a 338 358 4
a 338 357 13
a 339 360 96
a 339 359 43
a 339 358 4
a 340 361 13
a 340 360 45
a 340 359 44
a 341 342 78
a 341 361 21
a 341 360 97
a 342 363 32
a 342 362 51
a 342 381 83
a 343 364 51
a 343 363 52
a 343 362 6
a 344 365 32
a 344 364 3
a 344 363 20
a 345 366 48
a 345 365 34
a 345 364 6
a 346 367 31
a 346 366 62
a 346 365 95
a 347 368 59
a 347 367 87
a 347 366 76
a 348 369 14
a 348 368 51
a 348 367 48
a 349 370 9
a 349 369 6
a 349 368 60
a 350 371 53
a 350 370 2
a 350 369 55
a 351 372 73
a 351 371 98
a 351 370 20
a 352 373 23
a 352 372 33
a 352 371 97
a 353 374 27
a 353 373 38
a 353 372 81
a 354 375 29
a 354 374 57
a 354 373 83
a 355 376 14
a 355 375 14
a 355 374 67
a 356 377 76
a 356 376 8
a 356 375 14
a 357 378 14
a 357 377 35
a 357 376 44
a 358 379 64
a 358 378 35
a 358 377 54
a 359 380 70
a 359 379 94
a 359 378 68
a 360 381 71
a 360 380 100
a 360 379 28
a 361 362 20
a 361 381 19
a 361 380 80
a 362 383 52
a 362 382 68
a 362 401 53
a 363 384 89
a 363 383 48
a 363 382 27
a 364 385 97
a 364 384 30
a 364 383 5
a 365 386 62
a 365 385 96
a 365 384 34
a 366 387 70
a 366 386 61
a 366 385 99
a 367 388 56
a 367 387 57
a 367 386 74
a 368 389 90
a 368 388 62
a 368 387 87
a 369 390 83
a 369 389 81
a 369 388 3
a 370 391 83
a 370 390 8
a 370 389 24
a 371 392 53
a 371 391 88
a 371 390 94
a 372 393 20
a 372 392 92
a 372 391 65
a 373 394 67
a 373 393 70
a 373 392 69
a 374 395 49
a 374 394 75
a 374 393 9
a 375 396 96
a 375 395 8
a 375 394 58
a 376 397 57
a 376 396 6
a 376 395 19
a 377 398 13
a 377 397 32
a 377 396 40
a 378 399 26
a 378 398 70
a 378 397 96
a 379 400 7
a 379 399 72
a 379 398 85
a 380 401 14
a 380 400 95
a 380 399 68
a 381 382 1
a 381 401 40
a 381 400 2
a 382 402 300
a 383 402 300
a 384 402 300
a 385 402 300
a 386 402 300
a 387 402 300
a 388 402 300
a 389 402 300
a 390 402 300
a 391 402 300
a 392 402 300
a 393 402 300
a 394 402 300
a 395 402 300
a 396 402 300
a 397 402 300
a 398 402 300
a 399 402 300
a 400 402 300
a 401 402 300
